\* SlaveProblem *\
Maximize
OBJ: 0.75 q1 + 0.75 q10 + 0.5 q100 + 0.5 q101 + 0.375 q102 + 0.33333333 q103
 + 0.33333333 q104 + 0.33333333 q105 + 0.25 q106 + 0.25 q107 + 0.25 q108
 + 0.25 q109 + 0.75 q11 + 0.25 q110 + 0.25 q111 + 0.25 q112 + 0.25 q113
 + 0.25 q114 + 0.25 q115 + 0.25 q116 + 0.25 q117 + 0.25 q118 + 0.25 q119
 + 0.75 q12 + 0.25 q120 + 0.25 q121 + 0.25 q122 + 0.25 q123 + 0.25 q124
 + 0.25 q125 + 0.25 q126 + 0.25 q127 + 0.25 q128 + 0.25 q129 + 0.75 q13
 + 0.25 q130 + 0.25 q131 + 0.25 q132 + 0.25 q133 + 0.25 q134 + 0.25 q135
 + 0.25 q136 + 0.25 q137 + 0.25 q138 + 0.25 q139 + 0.75 q14 + 0.25 q140
 + 0.25 q141 + 0.25 q142 + 0.25 q143 + 0.25 q144 + 0.25 q145 + 0.25 q146
 + 0.25 q147 + 0.25 q148 + 0.25 q149 + 0.75 q15 + 0.25 q150 + 0.25 q151
 + 0.25 q152 + 0.25 q153 + 0.25 q154 + 0.25 q155 + 0.25 q156 + 0.25 q157
 + 0.25 q158 + 0.25 q159 + 0.75 q16 + 0.25 q160 + 0.25 q161 + 0.25 q162
 + 0.25 q163 + 0.25 q164 + 0.25 q165 + 0.25 q166 + 0.25 q167 + 0.25 q168
 + 0.25 q169 + 0.75 q17 + 0.25 q170 + 0.25 q171 + 0.20833333 q172
 + 0.20833333 q173 + 0.16666667 q174 + 0.125 q175 + 0.125 q176 + 0.125 q177
 + 0.75 q18 + 0.75 q19 + 0.75 q2 + 0.75 q20 + 0.75 q21 + 0.75 q22 + 0.75 q23
 + 0.75 q24 + 0.75 q25 + 0.75 q26 + 0.75 q27 + 0.75 q28 + 0.75 q29 + 0.75 q3
 + 0.75 q30 + 0.75 q31 + 0.75 q32 + 0.75 q33 + 0.75 q34 + 0.75 q35 + 0.75 q36
 + 0.75 q37 + 0.75 q38 + 0.75 q39 + 0.75 q4 + 0.75 q40 + 0.66666667 q41
 + 0.66666667 q42 + 0.66666667 q43 + 0.625 q44 + 0.5 q45 + 0.5 q46 + 0.5 q47
 + 0.5 q48 + 0.5 q49 + 0.75 q5 + 0.5 q50 + 0.5 q51 + 0.5 q52 + 0.5 q53
 + 0.5 q54 + 0.5 q55 + 0.5 q56 + 0.5 q57 + 0.5 q58 + 0.5 q59 + 0.75 q6
 + 0.5 q60 + 0.5 q61 + 0.5 q62 + 0.5 q63 + 0.5 q64 + 0.5 q65 + 0.5 q66
 + 0.5 q67 + 0.5 q68 + 0.5 q69 + 0.75 q7 + 0.5 q70 + 0.5 q71 + 0.5 q72
 + 0.5 q73 + 0.5 q74 + 0.5 q75 + 0.5 q76 + 0.5 q77 + 0.5 q78 + 0.5 q79
 + 0.75 q8 + 0.5 q80 + 0.5 q81 + 0.5 q82 + 0.5 q83 + 0.5 q84 + 0.5 q85
 + 0.5 q86 + 0.5 q87 + 0.5 q88 + 0.5 q89 + 0.75 q9 + 0.5 q90 + 0.5 q91
 + 0.5 q92 + 0.5 q93 + 0.5 q94 + 0.5 q95 + 0.5 q96 + 0.5 q97 + 0.5 q98
 + 0.5 q99
Subject To
_C1: 280 q1 + 269 q10 + 169 q100 + 168 q101 + 167 q102 + 165 q103 + 164 q104
 + 163 q105 + 162 q106 + 161 q107 + 160 q108 + 159 q109 + 268 q11 + 158 q110
 + 157 q111 + 156 q112 + 155 q113 + 154 q114 + 152 q115 + 151 q116 + 150 q117
 + 149 q118 + 148 q119 + 267 q12 + 147 q120 + 146 q121 + 145 q122 + 143 q123
 + 142 q124 + 141 q125 + 140 q126 + 139 q127 + 138 q128 + 137 q129 + 266 q13
 + 136 q130 + 135 q131 + 134 q132 + 133 q133 + 132 q134 + 131 q135 + 130 q136
 + 129 q137 + 128 q138 + 127 q139 + 265 q14 + 126 q140 + 125 q141 + 124 q142
 + 123 q143 + 122 q144 + 121 q145 + 120 q146 + 119 q147 + 118 q148 + 117 q149
 + 264 q15 + 115 q150 + 114 q151 + 113 q152 + 110 q153 + 109 q154 + 108 q155
 + 107 q156 + 104 q157 + 102 q158 + 101 q159 + 263 q16 + 100 q160 + 99 q161
 + 98 q162 + 97 q163 + 96 q164 + 95 q165 + 94 q166 + 92 q167 + 91 q168
 + 89 q169 + 262 q17 + 88 q170 + 87 q171 + 85 q172 + 84 q173 + 83 q174
 + 82 q175 + 81 q176 + 80 q177 + 261 q18 + 260 q19 + 279 q2 + 259 q20
 + 258 q21 + 257 q22 + 256 q23 + 255 q24 + 254 q25 + 253 q26 + 252 q27
 + 251 q28 + 250 q29 + 277 q3 + 249 q30 + 248 q31 + 247 q32 + 246 q33
 + 245 q34 + 243 q35 + 242 q36 + 241 q37 + 240 q38 + 239 q39 + 276 q4
 + 238 q40 + 237 q41 + 235 q42 + 234 q43 + 233 q44 + 232 q45 + 230 q46
 + 228 q47 + 227 q48 + 226 q49 + 274 q5 + 225 q50 + 224 q51 + 223 q52
 + 222 q53 + 221 q54 + 220 q55 + 219 q56 + 217 q57 + 216 q58 + 215 q59
 + 273 q6 + 214 q60 + 212 q61 + 211 q62 + 210 q63 + 209 q64 + 208 q65
 + 207 q66 + 206 q67 + 204 q68 + 203 q69 + 272 q7 + 202 q70 + 201 q71
 + 200 q72 + 198 q73 + 197 q74 + 195 q75 + 194 q76 + 193 q77 + 192 q78
 + 191 q79 + 271 q8 + 190 q80 + 189 q81 + 188 q82 + 187 q83 + 186 q84
 + 185 q85 + 184 q86 + 183 q87 + 182 q88 + 181 q89 + 270 q9 + 180 q90
 + 179 q91 + 178 q92 + 176 q93 + 175 q94 + 174 q95 + 173 q96 + 172 q97
 + 171 q98 + 170 q99 <= 400
Bounds
0 <= q1
0 <= q10
0 <= q100
0 <= q101
0 <= q102
0 <= q103
0 <= q104
0 <= q105
0 <= q106
0 <= q107
0 <= q108
0 <= q109
0 <= q11
0 <= q110
0 <= q111
0 <= q112
0 <= q113
0 <= q114
0 <= q115
0 <= q116
0 <= q117
0 <= q118
0 <= q119
0 <= q12
0 <= q120
0 <= q121
0 <= q122
0 <= q123
0 <= q124
0 <= q125
0 <= q126
0 <= q127
0 <= q128
0 <= q129
0 <= q13
0 <= q130
0 <= q131
0 <= q132
0 <= q133
0 <= q134
0 <= q135
0 <= q136
0 <= q137
0 <= q138
0 <= q139
0 <= q14
0 <= q140
0 <= q141
0 <= q142
0 <= q143
0 <= q144
0 <= q145
0 <= q146
0 <= q147
0 <= q148
0 <= q149
0 <= q15
0 <= q150
0 <= q151
0 <= q152
0 <= q153
0 <= q154
0 <= q155
0 <= q156
0 <= q157
0 <= q158
0 <= q159
0 <= q16
0 <= q160
0 <= q161
0 <= q162
0 <= q163
0 <= q164
0 <= q165
0 <= q166
0 <= q167
0 <= q168
0 <= q169
0 <= q17
0 <= q170
0 <= q171
0 <= q172
0 <= q173
0 <= q174
0 <= q175
0 <= q176
0 <= q177
0 <= q18
0 <= q19
0 <= q2
0 <= q20
0 <= q21
0 <= q22
0 <= q23
0 <= q24
0 <= q25
0 <= q26
0 <= q27
0 <= q28
0 <= q29
0 <= q3
0 <= q30
0 <= q31
0 <= q32
0 <= q33
0 <= q34
0 <= q35
0 <= q36
0 <= q37
0 <= q38
0 <= q39
0 <= q4
0 <= q40
0 <= q41
0 <= q42
0 <= q43
0 <= q44
0 <= q45
0 <= q46
0 <= q47
0 <= q48
0 <= q49
0 <= q5
0 <= q50
0 <= q51
0 <= q52
0 <= q53
0 <= q54
0 <= q55
0 <= q56
0 <= q57
0 <= q58
0 <= q59
0 <= q6
0 <= q60
0 <= q61
0 <= q62
0 <= q63
0 <= q64
0 <= q65
0 <= q66
0 <= q67
0 <= q68
0 <= q69
0 <= q7
0 <= q70
0 <= q71
0 <= q72
0 <= q73
0 <= q74
0 <= q75
0 <= q76
0 <= q77
0 <= q78
0 <= q79
0 <= q8
0 <= q80
0 <= q81
0 <= q82
0 <= q83
0 <= q84
0 <= q85
0 <= q86
0 <= q87
0 <= q88
0 <= q89
0 <= q9
0 <= q90
0 <= q91
0 <= q92
0 <= q93
0 <= q94
0 <= q95
0 <= q96
0 <= q97
0 <= q98
0 <= q99
Generals
q1
q10
q100
q101
q102
q103
q104
q105
q106
q107
q108
q109
q11
q110
q111
q112
q113
q114
q115
q116
q117
q118
q119
q12
q120
q121
q122
q123
q124
q125
q126
q127
q128
q129
q13
q130
q131
q132
q133
q134
q135
q136
q137
q138
q139
q14
q140
q141
q142
q143
q144
q145
q146
q147
q148
q149
q15
q150
q151
q152
q153
q154
q155
q156
q157
q158
q159
q16
q160
q161
q162
q163
q164
q165
q166
q167
q168
q169
q17
q170
q171
q172
q173
q174
q175
q176
q177
q18
q19
q2
q20
q21
q22
q23
q24
q25
q26
q27
q28
q29
q3
q30
q31
q32
q33
q34
q35
q36
q37
q38
q39
q4
q40
q41
q42
q43
q44
q45
q46
q47
q48
q49
q5
q50
q51
q52
q53
q54
q55
q56
q57
q58
q59
q6
q60
q61
q62
q63
q64
q65
q66
q67
q68
q69
q7
q70
q71
q72
q73
q74
q75
q76
q77
q78
q79
q8
q80
q81
q82
q83
q84
q85
q86
q87
q88
q89
q9
q90
q91
q92
q93
q94
q95
q96
q97
q98
q99
End
